
;this file is automatically generated: Tue Mar 02 15:25:53 CST 2021

;declarations generated

(declare-fun oclExcludes ( Int Int) Bool)
(declare-fun Cardinality ( Int) Int)
(declare-fun type_e2f2e072_cb59_4803_9c79_fd9d30ebcc2e_Class40 ( Int) Bool)
(declare-fun type_e2f2e072_cb59_4803_9c79_fd9d30ebcc2e_Class47 ( Int) Bool)
(declare-fun type_e2f2e072_cb59_4803_9c79_fd9d30ebcc2e_Class48 ( Int) Bool)
(declare-fun type_e2f2e072_cb59_4803_9c79_fd9d30ebcc2e_Class45 ( Int) Bool)
(declare-fun type_e2f2e072_cb59_4803_9c79_fd9d30ebcc2e_Class46 ( Int) Bool)
(declare-fun type_e2f2e072_cb59_4803_9c79_fd9d30ebcc2e_Class43 ( Int) Bool)
(declare-fun type_e2f2e072_cb59_4803_9c79_fd9d30ebcc2e_Class44 ( Int) Bool)
(declare-fun type_e2f2e072_cb59_4803_9c79_fd9d30ebcc2e_Class41 ( Int) Bool)
(declare-fun type_e2f2e072_cb59_4803_9c79_fd9d30ebcc2e_Class42 ( Int) Bool)
(declare-fun type_e2f2e072_cb59_4803_9c79_fd9d30ebcc2e_Class49 ( Int) Bool)
(declare-fun type_e2f2e072_cb59_4803_9c79_fd9d30ebcc2e_Class50 ( Int) Bool)
(declare-fun type_e2f2e072_cb59_4803_9c79_fd9d30ebcc2e_Class51 ( Int) Bool)
(declare-fun type_e2f2e072_cb59_4803_9c79_fd9d30ebcc2e_Class54 ( Int) Bool)
(declare-fun type_e2f2e072_cb59_4803_9c79_fd9d30ebcc2e_Class55 ( Int) Bool)
(declare-fun type_e2f2e072_cb59_4803_9c79_fd9d30ebcc2e_Class52 ( Int) Bool)
(declare-fun type_e2f2e072_cb59_4803_9c79_fd9d30ebcc2e_Class53 ( Int) Bool)
(declare-fun type_e2f2e072_cb59_4803_9c79_fd9d30ebcc2e_Class25 ( Int) Bool)
(declare-fun type_e2f2e072_cb59_4803_9c79_fd9d30ebcc2e_Class26 ( Int) Bool)
(declare-fun type_e2f2e072_cb59_4803_9c79_fd9d30ebcc2e_Class23 ( Int) Bool)
(declare-fun type_e2f2e072_cb59_4803_9c79_fd9d30ebcc2e_Class24 ( Int) Bool)
(declare-fun type_e2f2e072_cb59_4803_9c79_fd9d30ebcc2e_Class21 ( Int) Bool)
(declare-fun type_e2f2e072_cb59_4803_9c79_fd9d30ebcc2e_Class22 ( Int) Bool)
(declare-fun type_e2f2e072_cb59_4803_9c79_fd9d30ebcc2e_Class20 ( Int) Bool)
(declare-fun type_e2f2e072_cb59_4803_9c79_fd9d30ebcc2e_Class29 ( Int) Bool)
(declare-fun type_e2f2e072_cb59_4803_9c79_fd9d30ebcc2e_Class27 ( Int) Bool)
(declare-fun type_e2f2e072_cb59_4803_9c79_fd9d30ebcc2e_Class28 ( Int) Bool)
(declare-fun type_e2f2e072_cb59_4803_9c79_fd9d30ebcc2e_Class36 ( Int) Bool)
(declare-fun type_e2f2e072_cb59_4803_9c79_fd9d30ebcc2e_Class37 ( Int) Bool)
(declare-fun type_e2f2e072_cb59_4803_9c79_fd9d30ebcc2e_Class34 ( Int) Bool)
(declare-fun type_e2f2e072_cb59_4803_9c79_fd9d30ebcc2e_Class35 ( Int) Bool)
(declare-fun type_e2f2e072_cb59_4803_9c79_fd9d30ebcc2e_Class32 ( Int) Bool)
(declare-fun type_e2f2e072_cb59_4803_9c79_fd9d30ebcc2e_Class33 ( Int) Bool)
(declare-fun type_e2f2e072_cb59_4803_9c79_fd9d30ebcc2e_Class30 ( Int) Bool)
(declare-fun type_e2f2e072_cb59_4803_9c79_fd9d30ebcc2e_Class31 ( Int) Bool)
(declare-fun type_e2f2e072_cb59_4803_9c79_fd9d30ebcc2e_Class38 ( Int) Bool)
(declare-fun type_e2f2e072_cb59_4803_9c79_fd9d30ebcc2e_Class39 ( Int) Bool)
(declare-fun type_e2f2e072_cb59_4803_9c79_fd9d30ebcc2e_Class1 ( Int) Bool)
(declare-fun type_e2f2e072_cb59_4803_9c79_fd9d30ebcc2e_Class2 ( Int) Bool)
(declare-fun type_e2f2e072_cb59_4803_9c79_fd9d30ebcc2e_Class0 ( Int) Bool)
(declare-fun type_e2f2e072_cb59_4803_9c79_fd9d30ebcc2e_Class9 ( Int) Bool)
(declare-fun type_e2f2e072_cb59_4803_9c79_fd9d30ebcc2e_Class7 ( Int) Bool)
(declare-fun type_e2f2e072_cb59_4803_9c79_fd9d30ebcc2e_Class8 ( Int) Bool)
(declare-fun type_e2f2e072_cb59_4803_9c79_fd9d30ebcc2e_Class5 ( Int) Bool)
(declare-fun type_e2f2e072_cb59_4803_9c79_fd9d30ebcc2e_Class6 ( Int) Bool)
(declare-fun type_e2f2e072_cb59_4803_9c79_fd9d30ebcc2e_Class3 ( Int) Bool)
(declare-fun type_e2f2e072_cb59_4803_9c79_fd9d30ebcc2e_Class4 ( Int) Bool)
(declare-fun type_e2f2e072_cb59_4803_9c79_fd9d30ebcc2e_Class14 ( Int) Bool)
(declare-fun type_e2f2e072_cb59_4803_9c79_fd9d30ebcc2e_Class15 ( Int) Bool)
(declare-fun type_e2f2e072_cb59_4803_9c79_fd9d30ebcc2e_Class12 ( Int) Bool)
(declare-fun type_e2f2e072_cb59_4803_9c79_fd9d30ebcc2e_Class13 ( Int) Bool)
(declare-fun type_e2f2e072_cb59_4803_9c79_fd9d30ebcc2e_Class10 ( Int) Bool)
(declare-fun type_e2f2e072_cb59_4803_9c79_fd9d30ebcc2e_Class11 ( Int) Bool)
(declare-fun type_e2f2e072_cb59_4803_9c79_fd9d30ebcc2e_Class18 ( Int) Bool)
(declare-fun type_e2f2e072_cb59_4803_9c79_fd9d30ebcc2e_Class19 ( Int) Bool)
(declare-fun type_e2f2e072_cb59_4803_9c79_fd9d30ebcc2e_Class16 ( Int) Bool)
(declare-fun type_e2f2e072_cb59_4803_9c79_fd9d30ebcc2e_Class17 ( Int) Bool)
(declare-fun oclSelect ( Int Bool) Int)
(declare-fun Enum0 ( Int) Int)
(declare-fun Enum1 ( Int) Int)
(declare-fun Enum2 ( Int) Int)
(declare-fun container_ ( Int) Int)
(declare-fun obj_b702373b_6a2f_477a_8ca3_d713c522bb2c ( Int) Int)
(declare-fun oclIncludes ( Int Int) Bool)
(declare-fun ObjAt ( Int Int) Int)

;formula(s) generated
(assert (forall ((p Int)) (=> ( type_e2f2e072_cb59_4803_9c79_fd9d30ebcc2e_Class48 p )  (and (>= ( Enum2 ( obj_b702373b_6a2f_477a_8ca3_d713c522bb2c p )  )  0) (<= ( Enum2 ( obj_b702373b_6a2f_477a_8ca3_d713c522bb2c p )  )  6)))))
(assert (! (forall ((c1 Int)) (=> (and (and (and (and (and (and (and (and (and ( type_e2f2e072_cb59_4803_9c79_fd9d30ebcc2e_Class48 c1 )  ( type_e2f2e072_cb59_4803_9c79_fd9d30ebcc2e_Class45 c1 ) ) ( type_e2f2e072_cb59_4803_9c79_fd9d30ebcc2e_Class12 c1 ) ) ( type_e2f2e072_cb59_4803_9c79_fd9d30ebcc2e_Class55 c1 ) ) ( type_e2f2e072_cb59_4803_9c79_fd9d30ebcc2e_Class33 c1 ) ) ( type_e2f2e072_cb59_4803_9c79_fd9d30ebcc2e_Class22 c1 ) ) ( type_e2f2e072_cb59_4803_9c79_fd9d30ebcc2e_Class29 c1 ) ) ( type_e2f2e072_cb59_4803_9c79_fd9d30ebcc2e_Class39 c1 ) ) ( type_e2f2e072_cb59_4803_9c79_fd9d30ebcc2e_Class50 c1 ) ) ( type_e2f2e072_cb59_4803_9c79_fd9d30ebcc2e_Class41 c1 ) ) (= ( Enum2 ( obj_b702373b_6a2f_477a_8ca3_d713c522bb2c c1 )  )  2))):named l0))
(assert (! (exists ((o Int)) ( type_e2f2e072_cb59_4803_9c79_fd9d30ebcc2e_Class0 ( obj_b702373b_6a2f_477a_8ca3_d713c522bb2c o )  ) ):named c0))
(assert (! (exists ((o Int)) (and (and (and (and (and ( type_e2f2e072_cb59_4803_9c79_fd9d30ebcc2e_Class1 ( obj_b702373b_6a2f_477a_8ca3_d713c522bb2c o )  )  ( type_e2f2e072_cb59_4803_9c79_fd9d30ebcc2e_Class45 ( obj_b702373b_6a2f_477a_8ca3_d713c522bb2c o )  ) ) ( type_e2f2e072_cb59_4803_9c79_fd9d30ebcc2e_Class12 ( obj_b702373b_6a2f_477a_8ca3_d713c522bb2c o )  ) ) ( type_e2f2e072_cb59_4803_9c79_fd9d30ebcc2e_Class33 ( obj_b702373b_6a2f_477a_8ca3_d713c522bb2c o )  ) ) ( type_e2f2e072_cb59_4803_9c79_fd9d30ebcc2e_Class22 ( obj_b702373b_6a2f_477a_8ca3_d713c522bb2c o )  ) ) ( type_e2f2e072_cb59_4803_9c79_fd9d30ebcc2e_Class39 ( obj_b702373b_6a2f_477a_8ca3_d713c522bb2c o )  ) )):named c1))
(assert (! (exists ((o Int)) (and (and (and (and (and (and (and (and (and ( type_e2f2e072_cb59_4803_9c79_fd9d30ebcc2e_Class10 ( obj_b702373b_6a2f_477a_8ca3_d713c522bb2c o )  )  ( type_e2f2e072_cb59_4803_9c79_fd9d30ebcc2e_Class45 ( obj_b702373b_6a2f_477a_8ca3_d713c522bb2c o )  ) ) ( type_e2f2e072_cb59_4803_9c79_fd9d30ebcc2e_Class12 ( obj_b702373b_6a2f_477a_8ca3_d713c522bb2c o )  ) ) ( type_e2f2e072_cb59_4803_9c79_fd9d30ebcc2e_Class55 ( obj_b702373b_6a2f_477a_8ca3_d713c522bb2c o )  ) ) ( type_e2f2e072_cb59_4803_9c79_fd9d30ebcc2e_Class33 ( obj_b702373b_6a2f_477a_8ca3_d713c522bb2c o )  ) ) ( type_e2f2e072_cb59_4803_9c79_fd9d30ebcc2e_Class22 ( obj_b702373b_6a2f_477a_8ca3_d713c522bb2c o )  ) ) ( type_e2f2e072_cb59_4803_9c79_fd9d30ebcc2e_Class29 ( obj_b702373b_6a2f_477a_8ca3_d713c522bb2c o )  ) ) ( type_e2f2e072_cb59_4803_9c79_fd9d30ebcc2e_Class39 ( obj_b702373b_6a2f_477a_8ca3_d713c522bb2c o )  ) ) ( type_e2f2e072_cb59_4803_9c79_fd9d30ebcc2e_Class50 ( obj_b702373b_6a2f_477a_8ca3_d713c522bb2c o )  ) ) ( type_e2f2e072_cb59_4803_9c79_fd9d30ebcc2e_Class41 ( obj_b702373b_6a2f_477a_8ca3_d713c522bb2c o )  ) )):named c2))
(assert (! (exists ((o Int)) ( type_e2f2e072_cb59_4803_9c79_fd9d30ebcc2e_Class11 ( obj_b702373b_6a2f_477a_8ca3_d713c522bb2c o )  ) ):named c3))
(assert (! (exists ((o Int)) (and (and (and ( type_e2f2e072_cb59_4803_9c79_fd9d30ebcc2e_Class12 ( obj_b702373b_6a2f_477a_8ca3_d713c522bb2c o )  )  ( type_e2f2e072_cb59_4803_9c79_fd9d30ebcc2e_Class33 ( obj_b702373b_6a2f_477a_8ca3_d713c522bb2c o )  ) ) ( type_e2f2e072_cb59_4803_9c79_fd9d30ebcc2e_Class22 ( obj_b702373b_6a2f_477a_8ca3_d713c522bb2c o )  ) ) ( type_e2f2e072_cb59_4803_9c79_fd9d30ebcc2e_Class39 ( obj_b702373b_6a2f_477a_8ca3_d713c522bb2c o )  ) )):named c4))
(assert (! (exists ((o Int)) (and (and (and (and (and (and (and (and (and ( type_e2f2e072_cb59_4803_9c79_fd9d30ebcc2e_Class13 ( obj_b702373b_6a2f_477a_8ca3_d713c522bb2c o )  )  ( type_e2f2e072_cb59_4803_9c79_fd9d30ebcc2e_Class45 ( obj_b702373b_6a2f_477a_8ca3_d713c522bb2c o )  ) ) ( type_e2f2e072_cb59_4803_9c79_fd9d30ebcc2e_Class12 ( obj_b702373b_6a2f_477a_8ca3_d713c522bb2c o )  ) ) ( type_e2f2e072_cb59_4803_9c79_fd9d30ebcc2e_Class55 ( obj_b702373b_6a2f_477a_8ca3_d713c522bb2c o )  ) ) ( type_e2f2e072_cb59_4803_9c79_fd9d30ebcc2e_Class33 ( obj_b702373b_6a2f_477a_8ca3_d713c522bb2c o )  ) ) ( type_e2f2e072_cb59_4803_9c79_fd9d30ebcc2e_Class22 ( obj_b702373b_6a2f_477a_8ca3_d713c522bb2c o )  ) ) ( type_e2f2e072_cb59_4803_9c79_fd9d30ebcc2e_Class29 ( obj_b702373b_6a2f_477a_8ca3_d713c522bb2c o )  ) ) ( type_e2f2e072_cb59_4803_9c79_fd9d30ebcc2e_Class39 ( obj_b702373b_6a2f_477a_8ca3_d713c522bb2c o )  ) ) ( type_e2f2e072_cb59_4803_9c79_fd9d30ebcc2e_Class50 ( obj_b702373b_6a2f_477a_8ca3_d713c522bb2c o )  ) ) ( type_e2f2e072_cb59_4803_9c79_fd9d30ebcc2e_Class41 ( obj_b702373b_6a2f_477a_8ca3_d713c522bb2c o )  ) )):named c5))
(assert (! (exists ((o Int)) (and (and (and (and (and (and (and (and (and ( type_e2f2e072_cb59_4803_9c79_fd9d30ebcc2e_Class14 ( obj_b702373b_6a2f_477a_8ca3_d713c522bb2c o )  )  ( type_e2f2e072_cb59_4803_9c79_fd9d30ebcc2e_Class45 ( obj_b702373b_6a2f_477a_8ca3_d713c522bb2c o )  ) ) ( type_e2f2e072_cb59_4803_9c79_fd9d30ebcc2e_Class12 ( obj_b702373b_6a2f_477a_8ca3_d713c522bb2c o )  ) ) ( type_e2f2e072_cb59_4803_9c79_fd9d30ebcc2e_Class55 ( obj_b702373b_6a2f_477a_8ca3_d713c522bb2c o )  ) ) ( type_e2f2e072_cb59_4803_9c79_fd9d30ebcc2e_Class33 ( obj_b702373b_6a2f_477a_8ca3_d713c522bb2c o )  ) ) ( type_e2f2e072_cb59_4803_9c79_fd9d30ebcc2e_Class22 ( obj_b702373b_6a2f_477a_8ca3_d713c522bb2c o )  ) ) ( type_e2f2e072_cb59_4803_9c79_fd9d30ebcc2e_Class29 ( obj_b702373b_6a2f_477a_8ca3_d713c522bb2c o )  ) ) ( type_e2f2e072_cb59_4803_9c79_fd9d30ebcc2e_Class39 ( obj_b702373b_6a2f_477a_8ca3_d713c522bb2c o )  ) ) ( type_e2f2e072_cb59_4803_9c79_fd9d30ebcc2e_Class50 ( obj_b702373b_6a2f_477a_8ca3_d713c522bb2c o )  ) ) ( type_e2f2e072_cb59_4803_9c79_fd9d30ebcc2e_Class41 ( obj_b702373b_6a2f_477a_8ca3_d713c522bb2c o )  ) )):named c6))
(assert (! (exists ((o Int)) ( type_e2f2e072_cb59_4803_9c79_fd9d30ebcc2e_Class15 ( obj_b702373b_6a2f_477a_8ca3_d713c522bb2c o )  ) ):named c7))
(assert (! (exists ((o Int)) (and (and (and (and (and ( type_e2f2e072_cb59_4803_9c79_fd9d30ebcc2e_Class16 ( obj_b702373b_6a2f_477a_8ca3_d713c522bb2c o )  )  ( type_e2f2e072_cb59_4803_9c79_fd9d30ebcc2e_Class45 ( obj_b702373b_6a2f_477a_8ca3_d713c522bb2c o )  ) ) ( type_e2f2e072_cb59_4803_9c79_fd9d30ebcc2e_Class12 ( obj_b702373b_6a2f_477a_8ca3_d713c522bb2c o )  ) ) ( type_e2f2e072_cb59_4803_9c79_fd9d30ebcc2e_Class33 ( obj_b702373b_6a2f_477a_8ca3_d713c522bb2c o )  ) ) ( type_e2f2e072_cb59_4803_9c79_fd9d30ebcc2e_Class22 ( obj_b702373b_6a2f_477a_8ca3_d713c522bb2c o )  ) ) ( type_e2f2e072_cb59_4803_9c79_fd9d30ebcc2e_Class39 ( obj_b702373b_6a2f_477a_8ca3_d713c522bb2c o )  ) )):named c8))
(assert (! (exists ((o Int)) ( type_e2f2e072_cb59_4803_9c79_fd9d30ebcc2e_Class17 ( obj_b702373b_6a2f_477a_8ca3_d713c522bb2c o )  ) ):named c9))
(assert (! (exists ((o Int)) (and (and (and ( type_e2f2e072_cb59_4803_9c79_fd9d30ebcc2e_Class18 ( obj_b702373b_6a2f_477a_8ca3_d713c522bb2c o )  )  ( type_e2f2e072_cb59_4803_9c79_fd9d30ebcc2e_Class25 ( obj_b702373b_6a2f_477a_8ca3_d713c522bb2c o )  ) ) ( type_e2f2e072_cb59_4803_9c79_fd9d30ebcc2e_Class24 ( obj_b702373b_6a2f_477a_8ca3_d713c522bb2c o )  ) ) ( type_e2f2e072_cb59_4803_9c79_fd9d30ebcc2e_Class39 ( obj_b702373b_6a2f_477a_8ca3_d713c522bb2c o )  ) )):named c10))
(assert (! (exists ((o Int)) (and (and (and (and (and (and (and (and (and ( type_e2f2e072_cb59_4803_9c79_fd9d30ebcc2e_Class19 ( obj_b702373b_6a2f_477a_8ca3_d713c522bb2c o )  )  ( type_e2f2e072_cb59_4803_9c79_fd9d30ebcc2e_Class45 ( obj_b702373b_6a2f_477a_8ca3_d713c522bb2c o )  ) ) ( type_e2f2e072_cb59_4803_9c79_fd9d30ebcc2e_Class12 ( obj_b702373b_6a2f_477a_8ca3_d713c522bb2c o )  ) ) ( type_e2f2e072_cb59_4803_9c79_fd9d30ebcc2e_Class55 ( obj_b702373b_6a2f_477a_8ca3_d713c522bb2c o )  ) ) ( type_e2f2e072_cb59_4803_9c79_fd9d30ebcc2e_Class33 ( obj_b702373b_6a2f_477a_8ca3_d713c522bb2c o )  ) ) ( type_e2f2e072_cb59_4803_9c79_fd9d30ebcc2e_Class22 ( obj_b702373b_6a2f_477a_8ca3_d713c522bb2c o )  ) ) ( type_e2f2e072_cb59_4803_9c79_fd9d30ebcc2e_Class29 ( obj_b702373b_6a2f_477a_8ca3_d713c522bb2c o )  ) ) ( type_e2f2e072_cb59_4803_9c79_fd9d30ebcc2e_Class39 ( obj_b702373b_6a2f_477a_8ca3_d713c522bb2c o )  ) ) ( type_e2f2e072_cb59_4803_9c79_fd9d30ebcc2e_Class50 ( obj_b702373b_6a2f_477a_8ca3_d713c522bb2c o )  ) ) ( type_e2f2e072_cb59_4803_9c79_fd9d30ebcc2e_Class41 ( obj_b702373b_6a2f_477a_8ca3_d713c522bb2c o )  ) )):named c11))
(assert (! (exists ((o Int)) ( type_e2f2e072_cb59_4803_9c79_fd9d30ebcc2e_Class2 ( obj_b702373b_6a2f_477a_8ca3_d713c522bb2c o )  ) ):named c12))
(assert (! (exists ((o Int)) ( type_e2f2e072_cb59_4803_9c79_fd9d30ebcc2e_Class20 ( obj_b702373b_6a2f_477a_8ca3_d713c522bb2c o )  ) ):named c13))
(assert (! (exists ((o Int)) (and (and (and (and (and (and (and (and (and ( type_e2f2e072_cb59_4803_9c79_fd9d30ebcc2e_Class21 ( obj_b702373b_6a2f_477a_8ca3_d713c522bb2c o )  )  ( type_e2f2e072_cb59_4803_9c79_fd9d30ebcc2e_Class45 ( obj_b702373b_6a2f_477a_8ca3_d713c522bb2c o )  ) ) ( type_e2f2e072_cb59_4803_9c79_fd9d30ebcc2e_Class12 ( obj_b702373b_6a2f_477a_8ca3_d713c522bb2c o )  ) ) ( type_e2f2e072_cb59_4803_9c79_fd9d30ebcc2e_Class33 ( obj_b702373b_6a2f_477a_8ca3_d713c522bb2c o )  ) ) ( type_e2f2e072_cb59_4803_9c79_fd9d30ebcc2e_Class22 ( obj_b702373b_6a2f_477a_8ca3_d713c522bb2c o )  ) ) ( type_e2f2e072_cb59_4803_9c79_fd9d30ebcc2e_Class16 ( obj_b702373b_6a2f_477a_8ca3_d713c522bb2c o )  ) ) ( type_e2f2e072_cb59_4803_9c79_fd9d30ebcc2e_Class29 ( obj_b702373b_6a2f_477a_8ca3_d713c522bb2c o )  ) ) ( type_e2f2e072_cb59_4803_9c79_fd9d30ebcc2e_Class39 ( obj_b702373b_6a2f_477a_8ca3_d713c522bb2c o )  ) ) ( type_e2f2e072_cb59_4803_9c79_fd9d30ebcc2e_Class41 ( obj_b702373b_6a2f_477a_8ca3_d713c522bb2c o )  ) ) ( type_e2f2e072_cb59_4803_9c79_fd9d30ebcc2e_Class51 ( obj_b702373b_6a2f_477a_8ca3_d713c522bb2c o )  ) )):named c14))
(assert (! (exists ((o Int)) (and ( type_e2f2e072_cb59_4803_9c79_fd9d30ebcc2e_Class22 ( obj_b702373b_6a2f_477a_8ca3_d713c522bb2c o )  )  ( type_e2f2e072_cb59_4803_9c79_fd9d30ebcc2e_Class39 ( obj_b702373b_6a2f_477a_8ca3_d713c522bb2c o )  ) )):named c15))
(assert (! (exists ((o Int)) (and (and (and (and ( type_e2f2e072_cb59_4803_9c79_fd9d30ebcc2e_Class23 ( obj_b702373b_6a2f_477a_8ca3_d713c522bb2c o )  )  ( type_e2f2e072_cb59_4803_9c79_fd9d30ebcc2e_Class25 ( obj_b702373b_6a2f_477a_8ca3_d713c522bb2c o )  ) ) ( type_e2f2e072_cb59_4803_9c79_fd9d30ebcc2e_Class24 ( obj_b702373b_6a2f_477a_8ca3_d713c522bb2c o )  ) ) ( type_e2f2e072_cb59_4803_9c79_fd9d30ebcc2e_Class39 ( obj_b702373b_6a2f_477a_8ca3_d713c522bb2c o )  ) ) ( type_e2f2e072_cb59_4803_9c79_fd9d30ebcc2e_Class5 ( obj_b702373b_6a2f_477a_8ca3_d713c522bb2c o )  ) )):named c16))
(assert (! (exists ((o Int)) (and (and ( type_e2f2e072_cb59_4803_9c79_fd9d30ebcc2e_Class24 ( obj_b702373b_6a2f_477a_8ca3_d713c522bb2c o )  )  ( type_e2f2e072_cb59_4803_9c79_fd9d30ebcc2e_Class25 ( obj_b702373b_6a2f_477a_8ca3_d713c522bb2c o )  ) ) ( type_e2f2e072_cb59_4803_9c79_fd9d30ebcc2e_Class39 ( obj_b702373b_6a2f_477a_8ca3_d713c522bb2c o )  ) )):named c17))
(assert (! (exists ((o Int)) (and ( type_e2f2e072_cb59_4803_9c79_fd9d30ebcc2e_Class25 ( obj_b702373b_6a2f_477a_8ca3_d713c522bb2c o )  )  ( type_e2f2e072_cb59_4803_9c79_fd9d30ebcc2e_Class39 ( obj_b702373b_6a2f_477a_8ca3_d713c522bb2c o )  ) )):named c18))
(assert (! (exists ((o Int)) ( type_e2f2e072_cb59_4803_9c79_fd9d30ebcc2e_Class26 ( obj_b702373b_6a2f_477a_8ca3_d713c522bb2c o )  ) ):named c19))
(assert (! (exists ((o Int)) ( type_e2f2e072_cb59_4803_9c79_fd9d30ebcc2e_Class27 ( obj_b702373b_6a2f_477a_8ca3_d713c522bb2c o )  ) ):named c20))
(assert (! (exists ((o Int)) (and (and (and (and (and (and (and ( type_e2f2e072_cb59_4803_9c79_fd9d30ebcc2e_Class28 ( obj_b702373b_6a2f_477a_8ca3_d713c522bb2c o )  )  ( type_e2f2e072_cb59_4803_9c79_fd9d30ebcc2e_Class45 ( obj_b702373b_6a2f_477a_8ca3_d713c522bb2c o )  ) ) ( type_e2f2e072_cb59_4803_9c79_fd9d30ebcc2e_Class12 ( obj_b702373b_6a2f_477a_8ca3_d713c522bb2c o )  ) ) ( type_e2f2e072_cb59_4803_9c79_fd9d30ebcc2e_Class33 ( obj_b702373b_6a2f_477a_8ca3_d713c522bb2c o )  ) ) ( type_e2f2e072_cb59_4803_9c79_fd9d30ebcc2e_Class22 ( obj_b702373b_6a2f_477a_8ca3_d713c522bb2c o )  ) ) ( type_e2f2e072_cb59_4803_9c79_fd9d30ebcc2e_Class29 ( obj_b702373b_6a2f_477a_8ca3_d713c522bb2c o )  ) ) ( type_e2f2e072_cb59_4803_9c79_fd9d30ebcc2e_Class39 ( obj_b702373b_6a2f_477a_8ca3_d713c522bb2c o )  ) ) ( type_e2f2e072_cb59_4803_9c79_fd9d30ebcc2e_Class41 ( obj_b702373b_6a2f_477a_8ca3_d713c522bb2c o )  ) )):named c21))
(assert (! (exists ((o Int)) (and (and (and (and (and (and ( type_e2f2e072_cb59_4803_9c79_fd9d30ebcc2e_Class29 ( obj_b702373b_6a2f_477a_8ca3_d713c522bb2c o )  )  ( type_e2f2e072_cb59_4803_9c79_fd9d30ebcc2e_Class45 ( obj_b702373b_6a2f_477a_8ca3_d713c522bb2c o )  ) ) ( type_e2f2e072_cb59_4803_9c79_fd9d30ebcc2e_Class12 ( obj_b702373b_6a2f_477a_8ca3_d713c522bb2c o )  ) ) ( type_e2f2e072_cb59_4803_9c79_fd9d30ebcc2e_Class33 ( obj_b702373b_6a2f_477a_8ca3_d713c522bb2c o )  ) ) ( type_e2f2e072_cb59_4803_9c79_fd9d30ebcc2e_Class22 ( obj_b702373b_6a2f_477a_8ca3_d713c522bb2c o )  ) ) ( type_e2f2e072_cb59_4803_9c79_fd9d30ebcc2e_Class39 ( obj_b702373b_6a2f_477a_8ca3_d713c522bb2c o )  ) ) ( type_e2f2e072_cb59_4803_9c79_fd9d30ebcc2e_Class41 ( obj_b702373b_6a2f_477a_8ca3_d713c522bb2c o )  ) )):named c22))
(assert (! (exists ((o Int)) (and (and (and ( type_e2f2e072_cb59_4803_9c79_fd9d30ebcc2e_Class3 ( obj_b702373b_6a2f_477a_8ca3_d713c522bb2c o )  )  ( type_e2f2e072_cb59_4803_9c79_fd9d30ebcc2e_Class25 ( obj_b702373b_6a2f_477a_8ca3_d713c522bb2c o )  ) ) ( type_e2f2e072_cb59_4803_9c79_fd9d30ebcc2e_Class24 ( obj_b702373b_6a2f_477a_8ca3_d713c522bb2c o )  ) ) ( type_e2f2e072_cb59_4803_9c79_fd9d30ebcc2e_Class39 ( obj_b702373b_6a2f_477a_8ca3_d713c522bb2c o )  ) )):named c23))
(assert (! (exists ((o Int)) (and ( type_e2f2e072_cb59_4803_9c79_fd9d30ebcc2e_Class30 ( obj_b702373b_6a2f_477a_8ca3_d713c522bb2c o )  )  ( type_e2f2e072_cb59_4803_9c79_fd9d30ebcc2e_Class39 ( obj_b702373b_6a2f_477a_8ca3_d713c522bb2c o )  ) )):named c24))
(assert (! (exists ((o Int)) (and (and (and (and (and ( type_e2f2e072_cb59_4803_9c79_fd9d30ebcc2e_Class31 ( obj_b702373b_6a2f_477a_8ca3_d713c522bb2c o )  )  ( type_e2f2e072_cb59_4803_9c79_fd9d30ebcc2e_Class45 ( obj_b702373b_6a2f_477a_8ca3_d713c522bb2c o )  ) ) ( type_e2f2e072_cb59_4803_9c79_fd9d30ebcc2e_Class12 ( obj_b702373b_6a2f_477a_8ca3_d713c522bb2c o )  ) ) ( type_e2f2e072_cb59_4803_9c79_fd9d30ebcc2e_Class33 ( obj_b702373b_6a2f_477a_8ca3_d713c522bb2c o )  ) ) ( type_e2f2e072_cb59_4803_9c79_fd9d30ebcc2e_Class22 ( obj_b702373b_6a2f_477a_8ca3_d713c522bb2c o )  ) ) ( type_e2f2e072_cb59_4803_9c79_fd9d30ebcc2e_Class39 ( obj_b702373b_6a2f_477a_8ca3_d713c522bb2c o )  ) )):named c25))
(assert (! (exists ((o Int)) ( type_e2f2e072_cb59_4803_9c79_fd9d30ebcc2e_Class32 ( obj_b702373b_6a2f_477a_8ca3_d713c522bb2c o )  ) ):named c26))
(assert (! (exists ((o Int)) (and (and ( type_e2f2e072_cb59_4803_9c79_fd9d30ebcc2e_Class33 ( obj_b702373b_6a2f_477a_8ca3_d713c522bb2c o )  )  ( type_e2f2e072_cb59_4803_9c79_fd9d30ebcc2e_Class22 ( obj_b702373b_6a2f_477a_8ca3_d713c522bb2c o )  ) ) ( type_e2f2e072_cb59_4803_9c79_fd9d30ebcc2e_Class39 ( obj_b702373b_6a2f_477a_8ca3_d713c522bb2c o )  ) )):named c27))
(assert (! (exists ((o Int)) (and (and (and ( type_e2f2e072_cb59_4803_9c79_fd9d30ebcc2e_Class34 ( obj_b702373b_6a2f_477a_8ca3_d713c522bb2c o )  )  ( type_e2f2e072_cb59_4803_9c79_fd9d30ebcc2e_Class25 ( obj_b702373b_6a2f_477a_8ca3_d713c522bb2c o )  ) ) ( type_e2f2e072_cb59_4803_9c79_fd9d30ebcc2e_Class24 ( obj_b702373b_6a2f_477a_8ca3_d713c522bb2c o )  ) ) ( type_e2f2e072_cb59_4803_9c79_fd9d30ebcc2e_Class39 ( obj_b702373b_6a2f_477a_8ca3_d713c522bb2c o )  ) )):named c28))
(assert (! (exists ((o Int)) (and (and ( type_e2f2e072_cb59_4803_9c79_fd9d30ebcc2e_Class35 ( obj_b702373b_6a2f_477a_8ca3_d713c522bb2c o )  )  ( type_e2f2e072_cb59_4803_9c79_fd9d30ebcc2e_Class39 ( obj_b702373b_6a2f_477a_8ca3_d713c522bb2c o )  ) ) ( type_e2f2e072_cb59_4803_9c79_fd9d30ebcc2e_Class30 ( obj_b702373b_6a2f_477a_8ca3_d713c522bb2c o )  ) )):named c29))
(assert (! (exists ((o Int)) ( type_e2f2e072_cb59_4803_9c79_fd9d30ebcc2e_Class36 ( obj_b702373b_6a2f_477a_8ca3_d713c522bb2c o )  ) ):named c30))
(assert (! (exists ((o Int)) ( type_e2f2e072_cb59_4803_9c79_fd9d30ebcc2e_Class37 ( obj_b702373b_6a2f_477a_8ca3_d713c522bb2c o )  ) ):named c31))
(assert (! (exists ((o Int)) ( type_e2f2e072_cb59_4803_9c79_fd9d30ebcc2e_Class38 ( obj_b702373b_6a2f_477a_8ca3_d713c522bb2c o )  ) ):named c32))
(assert (! (exists ((o Int)) ( type_e2f2e072_cb59_4803_9c79_fd9d30ebcc2e_Class39 ( obj_b702373b_6a2f_477a_8ca3_d713c522bb2c o )  ) ):named c33))
(assert (! (exists ((o Int)) ( type_e2f2e072_cb59_4803_9c79_fd9d30ebcc2e_Class4 ( obj_b702373b_6a2f_477a_8ca3_d713c522bb2c o )  ) ):named c34))
(assert (! (exists ((o Int)) (and (and (and (and (and (and (and (and (and ( type_e2f2e072_cb59_4803_9c79_fd9d30ebcc2e_Class40 ( obj_b702373b_6a2f_477a_8ca3_d713c522bb2c o )  )  ( type_e2f2e072_cb59_4803_9c79_fd9d30ebcc2e_Class45 ( obj_b702373b_6a2f_477a_8ca3_d713c522bb2c o )  ) ) ( type_e2f2e072_cb59_4803_9c79_fd9d30ebcc2e_Class12 ( obj_b702373b_6a2f_477a_8ca3_d713c522bb2c o )  ) ) ( type_e2f2e072_cb59_4803_9c79_fd9d30ebcc2e_Class55 ( obj_b702373b_6a2f_477a_8ca3_d713c522bb2c o )  ) ) ( type_e2f2e072_cb59_4803_9c79_fd9d30ebcc2e_Class33 ( obj_b702373b_6a2f_477a_8ca3_d713c522bb2c o )  ) ) ( type_e2f2e072_cb59_4803_9c79_fd9d30ebcc2e_Class22 ( obj_b702373b_6a2f_477a_8ca3_d713c522bb2c o )  ) ) ( type_e2f2e072_cb59_4803_9c79_fd9d30ebcc2e_Class29 ( obj_b702373b_6a2f_477a_8ca3_d713c522bb2c o )  ) ) ( type_e2f2e072_cb59_4803_9c79_fd9d30ebcc2e_Class39 ( obj_b702373b_6a2f_477a_8ca3_d713c522bb2c o )  ) ) ( type_e2f2e072_cb59_4803_9c79_fd9d30ebcc2e_Class50 ( obj_b702373b_6a2f_477a_8ca3_d713c522bb2c o )  ) ) ( type_e2f2e072_cb59_4803_9c79_fd9d30ebcc2e_Class41 ( obj_b702373b_6a2f_477a_8ca3_d713c522bb2c o )  ) )):named c35))
(assert (! (exists ((o Int)) (and (and (and (and (and ( type_e2f2e072_cb59_4803_9c79_fd9d30ebcc2e_Class41 ( obj_b702373b_6a2f_477a_8ca3_d713c522bb2c o )  )  ( type_e2f2e072_cb59_4803_9c79_fd9d30ebcc2e_Class45 ( obj_b702373b_6a2f_477a_8ca3_d713c522bb2c o )  ) ) ( type_e2f2e072_cb59_4803_9c79_fd9d30ebcc2e_Class12 ( obj_b702373b_6a2f_477a_8ca3_d713c522bb2c o )  ) ) ( type_e2f2e072_cb59_4803_9c79_fd9d30ebcc2e_Class33 ( obj_b702373b_6a2f_477a_8ca3_d713c522bb2c o )  ) ) ( type_e2f2e072_cb59_4803_9c79_fd9d30ebcc2e_Class22 ( obj_b702373b_6a2f_477a_8ca3_d713c522bb2c o )  ) ) ( type_e2f2e072_cb59_4803_9c79_fd9d30ebcc2e_Class39 ( obj_b702373b_6a2f_477a_8ca3_d713c522bb2c o )  ) )):named c36))
(assert (! (exists ((o Int)) (and ( type_e2f2e072_cb59_4803_9c79_fd9d30ebcc2e_Class42 ( obj_b702373b_6a2f_477a_8ca3_d713c522bb2c o )  )  ( type_e2f2e072_cb59_4803_9c79_fd9d30ebcc2e_Class39 ( obj_b702373b_6a2f_477a_8ca3_d713c522bb2c o )  ) )):named c37))
(assert (! (exists ((o Int)) ( type_e2f2e072_cb59_4803_9c79_fd9d30ebcc2e_Class43 ( obj_b702373b_6a2f_477a_8ca3_d713c522bb2c o )  ) ):named c38))
(assert (! (exists ((o Int)) (and (and (and (and (and (and (and ( type_e2f2e072_cb59_4803_9c79_fd9d30ebcc2e_Class44 ( obj_b702373b_6a2f_477a_8ca3_d713c522bb2c o )  )  ( type_e2f2e072_cb59_4803_9c79_fd9d30ebcc2e_Class45 ( obj_b702373b_6a2f_477a_8ca3_d713c522bb2c o )  ) ) ( type_e2f2e072_cb59_4803_9c79_fd9d30ebcc2e_Class12 ( obj_b702373b_6a2f_477a_8ca3_d713c522bb2c o )  ) ) ( type_e2f2e072_cb59_4803_9c79_fd9d30ebcc2e_Class33 ( obj_b702373b_6a2f_477a_8ca3_d713c522bb2c o )  ) ) ( type_e2f2e072_cb59_4803_9c79_fd9d30ebcc2e_Class22 ( obj_b702373b_6a2f_477a_8ca3_d713c522bb2c o )  ) ) ( type_e2f2e072_cb59_4803_9c79_fd9d30ebcc2e_Class29 ( obj_b702373b_6a2f_477a_8ca3_d713c522bb2c o )  ) ) ( type_e2f2e072_cb59_4803_9c79_fd9d30ebcc2e_Class39 ( obj_b702373b_6a2f_477a_8ca3_d713c522bb2c o )  ) ) ( type_e2f2e072_cb59_4803_9c79_fd9d30ebcc2e_Class41 ( obj_b702373b_6a2f_477a_8ca3_d713c522bb2c o )  ) )):named c39))
(assert (! (exists ((o Int)) (and (and (and (and ( type_e2f2e072_cb59_4803_9c79_fd9d30ebcc2e_Class45 ( obj_b702373b_6a2f_477a_8ca3_d713c522bb2c o )  )  ( type_e2f2e072_cb59_4803_9c79_fd9d30ebcc2e_Class12 ( obj_b702373b_6a2f_477a_8ca3_d713c522bb2c o )  ) ) ( type_e2f2e072_cb59_4803_9c79_fd9d30ebcc2e_Class33 ( obj_b702373b_6a2f_477a_8ca3_d713c522bb2c o )  ) ) ( type_e2f2e072_cb59_4803_9c79_fd9d30ebcc2e_Class22 ( obj_b702373b_6a2f_477a_8ca3_d713c522bb2c o )  ) ) ( type_e2f2e072_cb59_4803_9c79_fd9d30ebcc2e_Class39 ( obj_b702373b_6a2f_477a_8ca3_d713c522bb2c o )  ) )):named c40))
(assert (! (exists ((o Int)) (and (and ( type_e2f2e072_cb59_4803_9c79_fd9d30ebcc2e_Class46 ( obj_b702373b_6a2f_477a_8ca3_d713c522bb2c o )  )  ( type_e2f2e072_cb59_4803_9c79_fd9d30ebcc2e_Class39 ( obj_b702373b_6a2f_477a_8ca3_d713c522bb2c o )  ) ) ( type_e2f2e072_cb59_4803_9c79_fd9d30ebcc2e_Class5 ( obj_b702373b_6a2f_477a_8ca3_d713c522bb2c o )  ) )):named c41))
(assert (! (exists ((o Int)) ( type_e2f2e072_cb59_4803_9c79_fd9d30ebcc2e_Class47 ( obj_b702373b_6a2f_477a_8ca3_d713c522bb2c o )  ) ):named c42))
(assert (! (exists ((o Int)) (and (and (and (and (and (and (and (and (and ( type_e2f2e072_cb59_4803_9c79_fd9d30ebcc2e_Class48 ( obj_b702373b_6a2f_477a_8ca3_d713c522bb2c o )  )  ( type_e2f2e072_cb59_4803_9c79_fd9d30ebcc2e_Class45 ( obj_b702373b_6a2f_477a_8ca3_d713c522bb2c o )  ) ) ( type_e2f2e072_cb59_4803_9c79_fd9d30ebcc2e_Class12 ( obj_b702373b_6a2f_477a_8ca3_d713c522bb2c o )  ) ) ( type_e2f2e072_cb59_4803_9c79_fd9d30ebcc2e_Class55 ( obj_b702373b_6a2f_477a_8ca3_d713c522bb2c o )  ) ) ( type_e2f2e072_cb59_4803_9c79_fd9d30ebcc2e_Class33 ( obj_b702373b_6a2f_477a_8ca3_d713c522bb2c o )  ) ) ( type_e2f2e072_cb59_4803_9c79_fd9d30ebcc2e_Class22 ( obj_b702373b_6a2f_477a_8ca3_d713c522bb2c o )  ) ) ( type_e2f2e072_cb59_4803_9c79_fd9d30ebcc2e_Class29 ( obj_b702373b_6a2f_477a_8ca3_d713c522bb2c o )  ) ) ( type_e2f2e072_cb59_4803_9c79_fd9d30ebcc2e_Class39 ( obj_b702373b_6a2f_477a_8ca3_d713c522bb2c o )  ) ) ( type_e2f2e072_cb59_4803_9c79_fd9d30ebcc2e_Class50 ( obj_b702373b_6a2f_477a_8ca3_d713c522bb2c o )  ) ) ( type_e2f2e072_cb59_4803_9c79_fd9d30ebcc2e_Class41 ( obj_b702373b_6a2f_477a_8ca3_d713c522bb2c o )  ) )):named c43))
(assert (! (exists ((o Int)) (and (and (and (and (and (and (and (and (and ( type_e2f2e072_cb59_4803_9c79_fd9d30ebcc2e_Class49 ( obj_b702373b_6a2f_477a_8ca3_d713c522bb2c o )  )  ( type_e2f2e072_cb59_4803_9c79_fd9d30ebcc2e_Class45 ( obj_b702373b_6a2f_477a_8ca3_d713c522bb2c o )  ) ) ( type_e2f2e072_cb59_4803_9c79_fd9d30ebcc2e_Class12 ( obj_b702373b_6a2f_477a_8ca3_d713c522bb2c o )  ) ) ( type_e2f2e072_cb59_4803_9c79_fd9d30ebcc2e_Class55 ( obj_b702373b_6a2f_477a_8ca3_d713c522bb2c o )  ) ) ( type_e2f2e072_cb59_4803_9c79_fd9d30ebcc2e_Class33 ( obj_b702373b_6a2f_477a_8ca3_d713c522bb2c o )  ) ) ( type_e2f2e072_cb59_4803_9c79_fd9d30ebcc2e_Class22 ( obj_b702373b_6a2f_477a_8ca3_d713c522bb2c o )  ) ) ( type_e2f2e072_cb59_4803_9c79_fd9d30ebcc2e_Class29 ( obj_b702373b_6a2f_477a_8ca3_d713c522bb2c o )  ) ) ( type_e2f2e072_cb59_4803_9c79_fd9d30ebcc2e_Class39 ( obj_b702373b_6a2f_477a_8ca3_d713c522bb2c o )  ) ) ( type_e2f2e072_cb59_4803_9c79_fd9d30ebcc2e_Class50 ( obj_b702373b_6a2f_477a_8ca3_d713c522bb2c o )  ) ) ( type_e2f2e072_cb59_4803_9c79_fd9d30ebcc2e_Class41 ( obj_b702373b_6a2f_477a_8ca3_d713c522bb2c o )  ) )):named c44))
(assert (! (exists ((o Int)) (and ( type_e2f2e072_cb59_4803_9c79_fd9d30ebcc2e_Class5 ( obj_b702373b_6a2f_477a_8ca3_d713c522bb2c o )  )  ( type_e2f2e072_cb59_4803_9c79_fd9d30ebcc2e_Class39 ( obj_b702373b_6a2f_477a_8ca3_d713c522bb2c o )  ) )):named c45))
(assert (! (exists ((o Int)) (and (and (and (and (and (and (and (and ( type_e2f2e072_cb59_4803_9c79_fd9d30ebcc2e_Class50 ( obj_b702373b_6a2f_477a_8ca3_d713c522bb2c o )  )  ( type_e2f2e072_cb59_4803_9c79_fd9d30ebcc2e_Class45 ( obj_b702373b_6a2f_477a_8ca3_d713c522bb2c o )  ) ) ( type_e2f2e072_cb59_4803_9c79_fd9d30ebcc2e_Class12 ( obj_b702373b_6a2f_477a_8ca3_d713c522bb2c o )  ) ) ( type_e2f2e072_cb59_4803_9c79_fd9d30ebcc2e_Class55 ( obj_b702373b_6a2f_477a_8ca3_d713c522bb2c o )  ) ) ( type_e2f2e072_cb59_4803_9c79_fd9d30ebcc2e_Class33 ( obj_b702373b_6a2f_477a_8ca3_d713c522bb2c o )  ) ) ( type_e2f2e072_cb59_4803_9c79_fd9d30ebcc2e_Class22 ( obj_b702373b_6a2f_477a_8ca3_d713c522bb2c o )  ) ) ( type_e2f2e072_cb59_4803_9c79_fd9d30ebcc2e_Class29 ( obj_b702373b_6a2f_477a_8ca3_d713c522bb2c o )  ) ) ( type_e2f2e072_cb59_4803_9c79_fd9d30ebcc2e_Class39 ( obj_b702373b_6a2f_477a_8ca3_d713c522bb2c o )  ) ) ( type_e2f2e072_cb59_4803_9c79_fd9d30ebcc2e_Class41 ( obj_b702373b_6a2f_477a_8ca3_d713c522bb2c o )  ) )):named c46))
(assert (! (exists ((o Int)) (and (and (and (and (and (and ( type_e2f2e072_cb59_4803_9c79_fd9d30ebcc2e_Class51 ( obj_b702373b_6a2f_477a_8ca3_d713c522bb2c o )  )  ( type_e2f2e072_cb59_4803_9c79_fd9d30ebcc2e_Class45 ( obj_b702373b_6a2f_477a_8ca3_d713c522bb2c o )  ) ) ( type_e2f2e072_cb59_4803_9c79_fd9d30ebcc2e_Class12 ( obj_b702373b_6a2f_477a_8ca3_d713c522bb2c o )  ) ) ( type_e2f2e072_cb59_4803_9c79_fd9d30ebcc2e_Class33 ( obj_b702373b_6a2f_477a_8ca3_d713c522bb2c o )  ) ) ( type_e2f2e072_cb59_4803_9c79_fd9d30ebcc2e_Class22 ( obj_b702373b_6a2f_477a_8ca3_d713c522bb2c o )  ) ) ( type_e2f2e072_cb59_4803_9c79_fd9d30ebcc2e_Class16 ( obj_b702373b_6a2f_477a_8ca3_d713c522bb2c o )  ) ) ( type_e2f2e072_cb59_4803_9c79_fd9d30ebcc2e_Class39 ( obj_b702373b_6a2f_477a_8ca3_d713c522bb2c o )  ) )):named c47))
(assert (! (exists ((o Int)) (and (and (and (and (and ( type_e2f2e072_cb59_4803_9c79_fd9d30ebcc2e_Class52 ( obj_b702373b_6a2f_477a_8ca3_d713c522bb2c o )  )  ( type_e2f2e072_cb59_4803_9c79_fd9d30ebcc2e_Class45 ( obj_b702373b_6a2f_477a_8ca3_d713c522bb2c o )  ) ) ( type_e2f2e072_cb59_4803_9c79_fd9d30ebcc2e_Class12 ( obj_b702373b_6a2f_477a_8ca3_d713c522bb2c o )  ) ) ( type_e2f2e072_cb59_4803_9c79_fd9d30ebcc2e_Class33 ( obj_b702373b_6a2f_477a_8ca3_d713c522bb2c o )  ) ) ( type_e2f2e072_cb59_4803_9c79_fd9d30ebcc2e_Class22 ( obj_b702373b_6a2f_477a_8ca3_d713c522bb2c o )  ) ) ( type_e2f2e072_cb59_4803_9c79_fd9d30ebcc2e_Class39 ( obj_b702373b_6a2f_477a_8ca3_d713c522bb2c o )  ) )):named c48))
(assert (! (exists ((o Int)) ( type_e2f2e072_cb59_4803_9c79_fd9d30ebcc2e_Class53 ( obj_b702373b_6a2f_477a_8ca3_d713c522bb2c o )  ) ):named c49))
(assert (! (exists ((o Int)) ( type_e2f2e072_cb59_4803_9c79_fd9d30ebcc2e_Class54 ( obj_b702373b_6a2f_477a_8ca3_d713c522bb2c o )  ) ):named c50))
(assert (! (exists ((o Int)) (and (and (and (and (and (and (and ( type_e2f2e072_cb59_4803_9c79_fd9d30ebcc2e_Class55 ( obj_b702373b_6a2f_477a_8ca3_d713c522bb2c o )  )  ( type_e2f2e072_cb59_4803_9c79_fd9d30ebcc2e_Class45 ( obj_b702373b_6a2f_477a_8ca3_d713c522bb2c o )  ) ) ( type_e2f2e072_cb59_4803_9c79_fd9d30ebcc2e_Class12 ( obj_b702373b_6a2f_477a_8ca3_d713c522bb2c o )  ) ) ( type_e2f2e072_cb59_4803_9c79_fd9d30ebcc2e_Class33 ( obj_b702373b_6a2f_477a_8ca3_d713c522bb2c o )  ) ) ( type_e2f2e072_cb59_4803_9c79_fd9d30ebcc2e_Class22 ( obj_b702373b_6a2f_477a_8ca3_d713c522bb2c o )  ) ) ( type_e2f2e072_cb59_4803_9c79_fd9d30ebcc2e_Class29 ( obj_b702373b_6a2f_477a_8ca3_d713c522bb2c o )  ) ) ( type_e2f2e072_cb59_4803_9c79_fd9d30ebcc2e_Class39 ( obj_b702373b_6a2f_477a_8ca3_d713c522bb2c o )  ) ) ( type_e2f2e072_cb59_4803_9c79_fd9d30ebcc2e_Class41 ( obj_b702373b_6a2f_477a_8ca3_d713c522bb2c o )  ) )):named c51))
(assert (! (exists ((o Int)) ( type_e2f2e072_cb59_4803_9c79_fd9d30ebcc2e_Class6 ( obj_b702373b_6a2f_477a_8ca3_d713c522bb2c o )  ) ):named c52))
(assert (! (exists ((o Int)) (and (and (and (and (and (and (and (and (and ( type_e2f2e072_cb59_4803_9c79_fd9d30ebcc2e_Class7 ( obj_b702373b_6a2f_477a_8ca3_d713c522bb2c o )  )  ( type_e2f2e072_cb59_4803_9c79_fd9d30ebcc2e_Class45 ( obj_b702373b_6a2f_477a_8ca3_d713c522bb2c o )  ) ) ( type_e2f2e072_cb59_4803_9c79_fd9d30ebcc2e_Class12 ( obj_b702373b_6a2f_477a_8ca3_d713c522bb2c o )  ) ) ( type_e2f2e072_cb59_4803_9c79_fd9d30ebcc2e_Class55 ( obj_b702373b_6a2f_477a_8ca3_d713c522bb2c o )  ) ) ( type_e2f2e072_cb59_4803_9c79_fd9d30ebcc2e_Class33 ( obj_b702373b_6a2f_477a_8ca3_d713c522bb2c o )  ) ) ( type_e2f2e072_cb59_4803_9c79_fd9d30ebcc2e_Class22 ( obj_b702373b_6a2f_477a_8ca3_d713c522bb2c o )  ) ) ( type_e2f2e072_cb59_4803_9c79_fd9d30ebcc2e_Class29 ( obj_b702373b_6a2f_477a_8ca3_d713c522bb2c o )  ) ) ( type_e2f2e072_cb59_4803_9c79_fd9d30ebcc2e_Class39 ( obj_b702373b_6a2f_477a_8ca3_d713c522bb2c o )  ) ) ( type_e2f2e072_cb59_4803_9c79_fd9d30ebcc2e_Class50 ( obj_b702373b_6a2f_477a_8ca3_d713c522bb2c o )  ) ) ( type_e2f2e072_cb59_4803_9c79_fd9d30ebcc2e_Class41 ( obj_b702373b_6a2f_477a_8ca3_d713c522bb2c o )  ) )):named c53))
(assert (! (exists ((o Int)) (and ( type_e2f2e072_cb59_4803_9c79_fd9d30ebcc2e_Class8 ( obj_b702373b_6a2f_477a_8ca3_d713c522bb2c o )  )  ( type_e2f2e072_cb59_4803_9c79_fd9d30ebcc2e_Class39 ( obj_b702373b_6a2f_477a_8ca3_d713c522bb2c o )  ) )):named c54))
(assert (! (exists ((o Int)) ( type_e2f2e072_cb59_4803_9c79_fd9d30ebcc2e_Class9 ( obj_b702373b_6a2f_477a_8ca3_d713c522bb2c o )  ) ):named c55))

 ;end of formula 